LengthSchedulingHorizon=3662;
nAttributes=5;
SetupCosts=[[0, 0, 0, 0, 0], [9, 20, 0, 18, 7], [1, 20, 17, 17, 23], [23, 6, 9, 21, 6], [13, 6, 11, 0, 3], [3, 8, 20, 4, 19]];
SetupTimes=[[0, 0, 0, 0, 0], [17, 2, 4, 5, 20], [15, 18, 8, 15, 17], [5, 4, 7, 24, 0], [19, 6, 7, 17, 24], [4, 4, 7, 20, 10]];
nMachines=2;
MinCap=[0, 0];
MaxCap=[7, 6];

initState=[5, 2];
nShifts=5;
ShiftStartTimes = [[1929, 2462, 2500, 2739, 2846], [0, 0, 0, 2535, 3499]];
ShiftEndTimes = [[2425, 2499, 2562, 2810, 3433], [0, 0, 0, 3437, 3584]];
nJobs=10;
EligibleMachines = [{1}, {2}, {1}, {2}, {1}, {2}, {2}, {1, 2}, {2}, {1}];
EarliestStart=[41, 13, 34, 1, 36, 20, 46, 4, 26, 26];
LatestEnd=[197, 150, 116, 132, 47, 124, 83, 74, 136, 143];
MinTime=[97, 69, 49, 85, 11, 98, 25, 58, 80, 92];
MaxTime=[97, 89, 95, 100, 90, 99, 91, 58, 89, 93];
JobSize=[2, 5, 3, 1, 1, 3, 5, 3, 2, 5];
Attribute=[2, 5, 3, 2, 1, 3, 3, 5, 3, 1];

upper_bound_integer_objective=38833200;
mult_factor_total_runtime=2208;
mult_factor_finished_toolate=3698400;
mult_factor_total_setuptimes=0;
mult_factor_total_setupcosts=1608;
running_time_bound=664;
min_duration=11;
max_duration=98;
max_setup_time=24;
max_setup_cost=23;
